\* Minimizacion_Empleados *\
Minimize
Funcion_Objetivo: x_1 + x_2 + x_3 + x_4 + x_5 + x_6
Subject To
Restriccion_1: x_1 + x_6 >= 15
Restriccion_2: x_1 + x_2 >= 35
Restriccion_3: x_2 + x_3 >= 65
Restriccion_4: x_3 + x_4 >= 80
Restriccion_5: x_4 + x_5 >= 40
Restriccion_6: x_5 + x_6 >= 25
Bounds
 0 <= x_1
 0 <= x_2
 0 <= x_3
 0 <= x_4
 0 <= x_5
 0 <= x_6
Generals
x_1
x_2
x_3
x_4
x_5
x_6
End
